Graphene 2x2 vacancy (from mp-48 supercell, one C removed)
1.0
   4.9200000000000000    0.0000000000000000    0.0000000000000000
  -2.4600000000000000    4.2608448000000000    0.0000000000000000
   0.0000000000000000    0.0000000000000000   15.0000000000000000
C
7
Direct
  0.000000000  0.000000000  0.500000000
  0.166666667  0.333333333  0.500000000
  0.500000000  0.000000000  0.500000000
  0.666666667  0.333333333  0.500000000
  0.000000000  0.500000000  0.500000000
  0.166666667  0.833333333  0.500000000
  0.666666667  0.833333333  0.500000000
