Si (mp-149) diamond via Materials Project / classroom bundle
1.0
   5.4300000000000000    0.0000000000000000    0.0000000000000000
   0.0000000000000000    5.4300000000000000    0.0000000000000000
   0.0000000000000000    0.0000000000000000    5.4300000000000000
Si
8
Direct
  0.000000000  0.000000000  0.000000000
  0.250000000  0.250000000  0.250000000
  0.500000000  0.500000000  0.000000000
  0.750000000  0.750000000  0.250000000
  0.500000000  0.000000000  0.500000000
  0.750000000  0.250000000  0.750000000
  0.000000000  0.500000000  0.500000000
  0.250000000  0.750000000  0.750000000
